experiment/data/hgs-res/Vrp-Set-X-n115/Vrp-Set-X-n115-hgs/0.hgs1.vrp
NAME : 0
COMMENT : CVRP Instance
TYPE : CVRP
DIMENSION : 115
EDGE_WEIGHT_TYPE : EUC_2D
CAPACITY : 169
NODE_COORD_SECTION
1	500.0	500.0
2	865.0	693.0
3	633.0	220.0
4	173.0	361.0
5	89.0	714.0
6	350.0	102.0
7	301.0	24.0
8	834.0	663.0
9	841.0	997.0
10	394.0	790.0
11	276.0	488.0
12	779.0	312.0
13	939.0	66.0
14	595.0	462.0
15	940.0	964.0
16	459.0	459.0
17	432.0	280.0
18	379.0	338.0
19	128.0	439.0
20	401.0	22.0
21	69.0	887.0
22	499.0	657.0
23	633.0	46.0
24	713.0	182.0
25	806.0	525.0
26	540.0	169.0
27	696.0	559.0
28	577.0	888.0
29	298.0	725.0
30	410.0	644.0
31	512.0	889.0
32	756.0	352.0
33	405.0	407.0
34	850.0	365.0
35	731.0	588.0
36	90.0	553.0
37	691.0	383.0
38	926.0	631.0
39	955.0	351.0
40	998.0	736.0
41	921.0	854.0
42	532.0	257.0
43	238.0	513.0
44	976.0	912.0
45	565.0	912.0
46	893.0	74.0
47	590.0	548.0
48	99.0	355.0
49	294.0	39.0
50	58.0	429.0
51	471.0	573.0
52	520.0	109.0
53	486.0	611.0
54	409.0	682.0
55	296.0	843.0
56	970.0	479.0
57	717.0	390.0
58	152.0	711.0
59	934.0	255.0
60	257.0	539.0
61	270.0	31.0
62	823.0	409.0
63	203.0	849.0
64	770.0	627.0
65	630.0	581.0
66	786.0	186.0
67	380.0	300.0
68	973.0	847.0
69	985.0	975.0
70	732.0	465.0
71	690.0	428.0
72	910.0	568.0
73	725.0	539.0
74	181.0	186.0
75	814.0	694.0
76	702.0	927.0
77	946.0	492.0
78	984.0	305.0
79	385.0	696.0
80	48.0	323.0
81	944.0	440.0
82	813.0	293.0
83	490.0	676.0
84	729.0	923.0
85	719.0	883.0
86	675.0	637.0
87	167.0	14.0
88	98.0	159.0
89	476.0	709.0
90	402.0	339.0
91	911.0	734.0
92	590.0	230.0
93	122.0	698.0
94	154.0	418.0
95	165.0	998.0
96	217.0	599.0
97	766.0	21.0
98	922.0	407.0
99	831.0	607.0
100	70.0	494.0
101	220.0	740.0
102	19.0	855.0
103	759.0	507.0
104	818.0	409.0
105	503.0	304.0
106	595.0	827.0
107	254.0	282.0
108	205.0	607.0
109	331.0	57.0
110	118.0	404.0
111	576.0	658.0
112	558.0	611.0
113	629.0	732.0
114	893.0	182.0
115	435.0	1000.0
DEMAND_SECTION
1	0
2	86
3	98
4	89
5	91
6	74
7	87
8	65
9	62
10	60
11	99
12	96
13	79
14	6
15	10
16	3
17	8
18	8
19	10
20	1
21	9
22	6
23	4
24	5
25	6
26	3
27	9
28	7
29	7
30	5
31	2
32	4
33	8
34	8
35	1
36	4
37	5
38	7
39	8
40	9
41	1
42	8
43	2
44	2
45	9
46	7
47	8
48	1
49	1
50	9
51	8
52	4
53	7
54	2
55	1
56	3
57	7
58	10
59	2
60	3
61	1
62	2
63	10
64	1
65	4
66	3
67	5
68	6
69	3
70	1
71	9
72	3
73	4
74	1
75	4
76	5
77	1
78	2
79	5
80	10
81	6
82	1
83	6
84	9
85	3
86	5
87	6
88	6
89	10
90	2
91	2
92	5
93	10
94	10
95	5
96	5
97	8
98	5
99	5
100	8
101	5
102	8
103	6
104	8
105	5
106	4
107	10
108	9
109	5
110	5
111	5
112	3
113	8
114	7
115	6
DEPOT_SECTION
1
-1
EOF
